NAME: cuum10.tsp
TYPE: TSP
COMMENT: User-generated TSP file
DIMENSION: 10
EDGE_WEIGHT_TYPE: EUC_2D
NODE_COORD_SECTION
1 5.0 9.0
2 10.0 9.0
3 6.0 2.0
4 5.0 9.0
5 4.0 3.0
6 3.0 8.0
7 7.0 7.0
8 6.0 7.0
9 5.0 4.0
10 7.0 6.0
EOF





